webassembly/ejemplos_dzn/folder16_json_31.dzn
TERM = { '.', 's(2)', 's(5)', 's(4)', 'local_0', 'local_1', 's(8)', 's(6)', 's(1)', 's(0)', 's(7)', 's(3)', 'in_0'};
null = '.';
s = 16;
n = 9;
ndeps = 3;
max_registers_sz = 5;
NR = 2;
registers = [|'local_0', 's(5)', |'local_1', 's(5)'|];
dependencies = [|'call[function_index(0)]_1', 'i32.load8_s_2', |'call[function_index(0)]_1', 'i32.load8_u_5', |'call[function_index(0)]_1', 'i32.load8_s_7'|];
GET_ENUM = { GET1, GET2, GET3, GET4, GET5, GET6, GET7};
SET_ENUM = { SET1, SET2, SET3, SET4, SET5, SET6, SET7};
TEE_ENUM = { TEE1, TEE2, TEE3, TEE4, TEE5, TEE6, TEE7};
N = 7;
OP = { 'i32.sub_0', 'i32.add_0', 'i32.add_1', 'call[function_index(0)]_1', 'i32.load8_s_2', 'i32.load8_u_5', 'i32.load8_s_7' };
in_ops = [2, 2, 2, 1, 1, 1, 1 ];
out_ops = [1, 1, 1, 3, 1, 1, 1 ];
in1 = ['s(3)', 's(6)', 's(6)', 'in_0', 's(2)', 'local_0', 's(5)' ];
in2 = ['s(1)', 's(4)', 's(7)', '.', '.', '.', '.' ];
in3 = ['.', '.', '.', '.', '.', '.', '.' ];
out1 = ['s(4)', 's(7)', 's(8)', 's(2)', 's(3)', 's(5)', 's(6)' ];
out2 = ['.', '.', '.', 's(1)', '.', '.', '.' ];
out3 = ['.', '.', '.', 's(0)', '.', '.', '.' ];
comm = [false, true, true, false, false, false, false ];
gas = [1, 1, 1, 1, 1, 1, 1 ];
sz = [1, 1, 1, 1, 1, 1, 1 ];
stor = [false, false, false, true, false, false, false ];
lb = [ 1, 1, 1, 1, 1, 1, 1 ];
ub = [ 16, 16, 16, 16, 16, 16, 16 ];
startstack = [ 'in_0', null, null, null, null, null, null, null, null ];
endstack = [ 's(5)', 's(6)', 's(8)', 's(0)', null, null, null, null, null ];
